Ba Hf O 
 1.0000000000000000
     3.9999816363150043    0.0000000171934107    0.0000000171934111
     0.0000000171934102    3.9999816363150047    0.0000000171934111
     0.0000000171934112    0.0000000171934112    3.9999816363150038
 Ba  Hf  O  
   1   1   3
Selective dynamics
Cartesian
  0.0162883967794336  0.0162883967794336  0.0162883967794336   T   T   T
  2.0158453937781404  2.0158453937781409  2.0158453937781409   T   T   T
  2.0158943758092569  2.0158943758092569  0.0160495972906642   T   T   T
  2.0158943758092573  0.0160495972906638  2.0158943758092578   T   T   T
  0.0160495972906646  2.0158943758092587  2.0158943758092573   T   T   T
