Ba Hf O 
 1.0000000000000000
     4.1493417971097832    0.0000000000000000    0.0000000000000000
     0.0000000000000000    4.1493417971097832    0.0000000000000000
     0.0000000000000000    0.0000000000000000    4.1593417971097832
 Ba  Hf  O  
   1   1   3
Cartesian
  0.0000000000000000  0.0000000000000000  0.0000000000000000
  2.0746708985548916  2.0746708985548916  2.0746708985548916
  2.0746708985548916  0.0000000000000000  2.0746708985548916
  0.0000000000000000  2.0746708985548916  2.0746708985548916
  2.0746708985548916  2.0746708985548916  0.0000000000000000
