Ba Hf O 
 1.0000000000000000
     3.6130569147427360   -0.1120247444097399   -0.1120247444097384
    -0.1120247444097394    3.6130569147427134   -0.1120247444097384
    -0.1120247444097384   -0.1120247444097389    3.6130569147427716
 Ba  Hf  O  
   1   1   3
Selective dynamics
Cartesian
 -0.0377606894209909 -0.0377606894209895 -0.0377606894209902   T   T   T
  2.1172923556916730  2.1172923556916357  2.1172923556916392   T   T   T
  0.4652542299985445  0.4652542299985426  2.1412511611332006   T   T   T
  0.4652542299985461  2.1412511611331850  0.4652542299985483   T   T   T
  2.1412511611332343  0.4652542299985393  0.4652542299985509   T   T   T
