Ba Hf O 
 1.0000000000000000
     4.1494541560771410    0.0000000000000000    0.0000000000000000
     0.0000000000000000    4.1494541560771410    0.0000000000000000
    -0.0000000000000000    0.0000000000000000    4.1494541560771410
 Ba  Hf  O  
   1   1   3
Selective dynamics
Cartesian
  0.0000000000000000  0.0000000000000000  0.0000000000000000   T   T   T
  2.0747270780385705  2.0747270780385705  2.0747270780385705   T   T   T
  2.0747270780385705  0.0000000000000000  2.0747270780385705   T   T   T
 -0.0000000000000000  2.0747270780385705  2.0747270780385705   T   T   T
  2.0747270780385705  2.0747270780385705  0.0000000000000000   T   T   T
