ABINIT generated POSCAR file. Title string - should be chemical formula... Al1Sc1 N2
   -0.49157025757598E+02
    0.34296300603640E+01    0.00000000000000E+00    0.00000000000000E+00
   -0.17148150301555E+01    0.29701467577969E+01    0.00000000000000E+00
    0.00000000000000E+00    0.00000000000000E+00    0.48257010296909E+01
Al Sc N             
  1         1         2
Direct
    0.33333333333000E+00     0.66666666667000E+00     0.98960728987611E+00
    0.66666666666333E+00     0.33333333333667E+00     0.47027894457573E+00
    0.33333333333000E+00     0.66666666667000E+00     0.38209630083150E+00
    0.66666666666333E+00     0.33333333333667E+00     0.91801746475666E+00
