Al Sc N 
 1.0000000000000000
     3.3055203284753873    0.0000000307153974   -0.0000000327254223
    -1.6527601376128462    2.8626645696734223    0.0000000214646148
    -0.0000000455984854    0.0000000310951253    5.1980396888442488
 Al  Sc  N  
   1   1   2
Cartesian
  0.0000001317894206  1.9084431648230451  5.2086331842312061
  1.6527601625497814  0.9542209860243871  2.5545212412945348
  0.0000001868391727  1.9084436036152457  1.8836228895445863
  1.6527602599623987  0.9542217541815456  4.6998106590455642
