Bi Fe O 
 1.0000000000000000
     4.7565112922156123   -2.7602256253362705    0.0000000000000000
     4.7565112922156123    2.7602256253362705    0.0000000000000000
    -3.1587300535099456    0.0000000000000000    4.5274503266303299
 Bi  Fe  O  
   2   2   6
Cartesian
  3.9960846770305918  1.3791016964049716  4.2154943933199505
  5.5754496976592609 -1.3791016746305387  1.9517692951428303
  3.9902711029820854  1.3795066843305499  1.1379268599114754
  2.4109061761639601 -1.3795066557707265  3.4016520580534126
 -1.1800990908135365  0.1183171437797941  2.5034048109234575
  5.4972827103450177  0.9901770677967124  2.4988164641025556
  7.0766477604510749 -0.9901769940462982  0.2350911906211455
  4.4832278335338636 -0.2665459529760012  0.2366376560326142
  2.9038627809960875  0.2665459184174833  2.5003630039358926
  0.3992659783311174 -0.1183171601559616  0.2396795363405082
